=obj=                            -22635740
C26                                                 1 	
C42                                                 1 	
C74                                                 1 	
C90                                                 1 	
C106                                                1 	
C148                                                1 	
C183                                                1 	
C247                                                1 	
C295                                                1 	
C314                                                1 	
C330                                                1 	
C346                                                1 	
C362                                                1 	
C386                                                1 	
C402                                                1 	
C427                                                1 	
C463                                                1 	
C498                                                1 	
C514                                                1 	
C543                                                1 	
C591                                                1 	
C639                                                1 	
C655                                                1 	
C667                                                1 	
C770                                                1 	
C786                                                1 	
C802                                                1 	
C818                                                1 	
C843                                                1 	
C875                                                1 	
C907                                                1 	
C914                                                1 	
C936                                                1 	
C958                                                1 	
C990                                                1 	
C1038                                               1 	
C1054                                               1 	
C1070                                               1 	
C1086                                               1 	
C1188                                               1 	
C1225                                               1 	
C1281                                               1 	
C1357                                               1 	
C1369                                               1 	
C1385                                               1 	
C1449                                               1 	
C1465                                               1 	
C1479                                               1 	
C1511                                               1 	
C1575                                               1 	
C1593                                               1 	
C1609                                               1 	
C1641                                               1 	
C1668                                               1 	
C1684                                               1 	
C1732                                               1 	
C1748                                               1 	
C1762                                               1 	
C1778                                               1 	
C1794                                               1 	
C1810                                               1 	
C1826                                               1 	
C1956                                               1 	
C2004                                               1 	
C2020                                               1 	
C2068                                               1 	
C2118                                               1 	
C2134                                               1 	
C2261                                               1 	
C2277                                               1 	
C2293                                               1 	
C2309                                               1 	
C2365                                               1 	
C2406                                               1 	
C2422                                               1 	
C2443                                               1 	
C2507                                               1 	
C2556                                               1 	
C2620                                               1 	
C2636                                               1 	
C2700                                               1 	
C2716                                               1 	
C2732                                               1 	
C2749                                               1 	
C2797                                               1 	
C2803                                               1 	
C2885                                               1 	
C2901                                               1 	
C2917                                               1 	
C2998                                               1 	
C3014                                               1 	
C3046                                               1 	
C3077                                               1 	
C3093                                               1 	
C3109                                               1 	
C3125                                               1 	
C3157                                               1 	
C3176                                               1 	
C3224                                               1 	
C3240                                               1 	
C3283                                               1 	
C3336                                               1 	
C3347                                               1 	
C3363                                               1 	
C3379                                               1 	
C3395                                               1 	
C3427                                               1 	
C3443                                               1 	
C3475                                               1 	
C3507                                               1 	
C3531                                               1 	
C3538                                               1 	
C3567                                               1 	
C3578                                               1 	
C3591                                               1 	
C3613                                               1 	
C3626                                               1 	
C3642                                               1 	
C3658                                               1 	
C3672                                               1 	
C3682                                               1 	
C3700                                               1 	
C3716                                               1 	
C3735                                               1 	
C3751                                               1 	
C3770                                               1 	
C3778                                               1 	
C3806                                               1 	
C3819                                               1 	
C3839                                               1 	
C3842                                               1 	
C3871                                               1 	
C3887                                               1 	
C3899                                               1 	
C3906                                               1 	
C3931                                               1 	
C3938                                               1 	
C3960                                               1 	
C3982                                               1 	
C3998                                               1 	
C4014                                               1 	
C4017                                               1 	
C4033                                               1 	
C4055                                               1 	
C4068                                               1 	
C4084                                               1 	
C4105                                               1 	
C4121                                               1 	
C4129                                               1 	
C4145                                               1 	
C4173                                               1 	
C4179                                               1 	
C4198                                               1 	
C4217                                               1 	
C4233                                               1 	
C4247                                               1 	
C4265                                               1 	
C4276                                               1 	
C4290                                               1 	
C4316                                               1 	
C4324                                               1 	
C4342                                               1 	
C4358                                               1 	
C4373                                               1 	
C4389                                               1 	
C4405                                               1 	
C4421                                               1 	
C4445                                               1 	
C4454                                               1 	
C4475                                               1 	
C4492                                               1 	
C4508                                               1 	
C4524                                               1 	
C4541                                               1 	
C4547                                               1 	
C4565                                               1 	
C4582                                               1 	
C4597                                               1 	
C4616                                               1 	
C4632                                               1 	
C4643                                               1 	
C4664                                               1 	
C4675                                               1 	
C4691                                               1 	
C4707                                               1 	
